NAME : portcgen-24-31
COMMENT : portcgen N=24, seed=31
TYPE : TSP
DIMENSION : 24
EDGE_WEIGHT_TYPE : EUC_2D
NODE_COORD_SECTION
1 -89160 120051
2 -239508 -13713
3 -70873 -196897
4 40769 89835
5 -334923 -261429
6 89763 -204038
7 240709 -200960
8 -161192 201714
9 -33631 47990
10 -398284 -150727
11 -167482 -226313
12 -163921 -69232
13 15700 -480990
14 -130100 117576
15 -36857 56600
16 -301312 238281
17 493919 155545
18 -53112 257847
19 -8606 256783
20 193490 118581
21 190078 -234127
22 -259132 -156059
23 231350 -222291
24 56982 355196
